Version identifier: 12.10.0.0 | 2019-11-26 | 843d4de
CPXPARAM_WorkMem                                 28672
Tried aggregator 2 times.
Aggregator did 45 substitutions.
Reduced MIP has 153 rows, 180 columns, and 729 nonzeros.
Reduced MIP has 180 binaries, 0 generals, 0 SOSs, and 0 indicators.
Presolve time = 0,00 sec. (0,68 ticks)
Found incumbent of value 2286,000000 after 0,00 sec. (1,21 ticks)
Probing time = 0,00 sec. (0,27 ticks)
Tried aggregator 1 time.
Detecting symmetries...
MIP Presolve eliminated 21 rows and 0 columns.
MIP Presolve added 42 rows and 0 columns.
Reduced MIP has 174 rows, 180 columns, and 750 nonzeros.
Reduced MIP has 180 binaries, 0 generals, 0 SOSs, and 0 indicators.
Presolve time = 0,00 sec. (0,85 ticks)
Probing time = 0,00 sec. (0,27 ticks)
Clique table members: 519.
MIP emphasis: balance optimality and feasibility.
MIP search method: dynamic search.
Parallel mode: deterministic, using up to 16 threads.
Root relaxation solution time = 0,00 sec. (0,48 ticks)

        Nodes                                         Cuts/
   Node  Left     Objective  IInf  Best Integer    Best Bound    ItCnt     Gap

*     0+    0                         2286,0000        0,0000           100,00%
*     0+    0                         1707,0000        0,0000           100,00%
      0     0      762,0000   152     1707,0000      762,0000       53   55,36%
      0     0      763,5914   152     1707,0000     Cuts: 149      116   55,27%
      0     0      775,1392   152     1707,0000     Cuts: 146      151   54,59%
      0     0      783,6884   152     1707,0000     Cuts: 143      195   54,09%
      0     0      787,8586   152     1707,0000     Cuts: 140      221   53,85%
      0     0      787,8988   152     1707,0000   ZeroHalf: 2      225   53,84%
      0     0      805,5096   152     1707,0000     Cuts: 143      288   52,81%
      0     0      806,0932   152     1707,0000   ZeroHalf: 1      296   52,78%
      0     0      806,7124   152     1707,0000   ZeroHalf: 2      310   52,74%
      0     0      807,2421   152     1707,0000       Cuts: 2      318   52,71%
      0     0      808,2226   152     1707,0000   ZeroHalf: 3      334   52,65%
*     0+    0                         1675,0000      808,2226            51,75%
      0     0      808,6318   152     1675,0000   ZeroHalf: 4      347   51,72%
      0     0      808,9306   152     1675,0000   ZeroHalf: 3      354   51,71%
      0     0      809,3471   152     1675,0000       Cuts: 9      366   51,68%
*     0+    0                         1670,0000      809,3471            51,54%
      0     0      811,0303   152     1670,0000   ZeroHalf: 3      392   51,44%
      0     0      811,1539   152     1670,0000   ZeroHalf: 2      410   51,43%
      0     0      811,3166   152     1670,0000   ZeroHalf: 1      420   51,42%
      0     0      811,5392   152     1670,0000   ZeroHalf: 1      427   51,40%
*     0+    0                         1552,0000      811,5392            47,71%
      0     0      811,8353   152     1552,0000      Cuts: 20      439   30,86%
      0     0      812,3685   152     1552,0000       Cuts: 8      444   30,86%
      0     2      812,3685   178     1552,0000     1125,3200      444   27,49%
Elapsed time = 0,34 sec. (148,09 ticks, tree = 0,02 MB, solutions = 5)
   1693   549     1542,3964    24     1552,0000     1259,1699    47312   18,87%

Clique cuts applied:  84
Cover cuts applied:  238
Mixed integer rounding cuts applied:  78
Zero-half cuts applied:  12
Gomory fractional cuts applied:  11

Root node processing (before b&c):
  Real time             =    0,32 sec. (147,75 ticks)
Parallel b&c, 16 threads:
  Real time             =    0,52 sec. (304,67 ticks)
  Sync time (average)   =    0,19 sec.
  Wait time (average)   =    0,00 sec.
                          ------------
Total (root+branch&cut) =    0,85 sec. (452,42 ticks)
